sat
(:max-memory          18.52
 :memory              18.42
 :nlsat-arith-var     2
 :nlsat-atoms         25
 :nlsat-bool-var      7
 :nlsat-clauses       7
 :nlsat-conflicts     6
 :nlsat-decisions     3
 :nlsat-propagations  41
 :nlsat-stages        8
 :num-allocs          66402
 :rlimit-count        14774
 :solve-eqs-elim-vars 2
 :solve-eqs-steps     16
 :time                0.01
 :total-time          0.02)
